c "random instance"
p edges 150 3311
e 1 8
e 1 9
e 1 10
e 1 13
e 1 14
e 1 19
e 1 20
e 1 26
e 1 28
e 1 32
e 1 42
e 1 54
e 1 61
e 1 62
e 1 63
e 1 64
e 1 70
e 1 73
e 1 74
e 1 76
e 1 79
e 1 80
e 1 83
e 1 88
e 1 96
e 1 101
e 1 103
e 1 114
e 1 118
e 1 120
e 1 121
e 1 123
e 1 125
e 1 126
e 1 129
e 1 133
e 1 135
e 1 136
e 1 137
e 1 141
e 1 144
e 1 146
e 1 147
e 1 150
e 2 7
e 2 9
e 2 20
e 2 26
e 2 27
e 2 28
e 2 35
e 2 36
e 2 38
e 2 40
e 2 41
e 2 51
e 2 55
e 2 57
e 2 69
e 2 71
e 2 72
e 2 76
e 2 79
e 2 86
e 2 87
e 2 88
e 2 96
e 2 102
e 2 105
e 2 107
e 2 108
e 2 109
e 2 116
e 2 117
e 2 118
e 2 122
e 2 124
e 2 125
e 2 127
e 2 136
e 3 4
e 3 5
e 3 6
e 3 7
e 3 9
e 3 11
e 3 13
e 3 22
e 3 23
e 3 28
e 3 29
e 3 31
e 3 33
e 3 36
e 3 39
e 3 45
e 3 47
e 3 48
e 3 50
e 3 51
e 3 54
e 3 58
e 3 64
e 3 66
e 3 78
e 3 80
e 3 82
e 3 86
e 3 87
e 3 88
e 3 89
e 3 90
e 3 93
e 3 94
e 3 98
e 3 99
e 3 104
e 3 109
e 3 111
e 3 114
e 3 115
e 3 116
e 3 121
e 3 122
e 3 126
e 3 132
e 3 133
e 3 135
e 4 10
e 4 12
e 4 14
e 4 20
e 4 21
e 4 22
e 4 24
e 4 25
e 4 26
e 4 29
e 4 36
e 4 43
e 4 53
e 4 55
e 4 78
e 4 82
e 4 83
e 4 87
e 4 88
e 4 89
e 4 94
e 4 95
e 4 97
e 4 103
e 4 107
e 4 111
e 4 112
e 4 116
e 4 122
e 4 123
e 4 124
e 4 129
e 4 136
e 4 137
e 4 138
e 4 139
e 4 141
e 4 145
e 4 149
e 5 12
e 5 15
e 5 16
e 5 18
e 5 21
e 5 22
e 5 27
e 5 30
e 5 34
e 5 35
e 5 36
e 5 37
e 5 47
e 5 51
e 5 52
e 5 64
e 5 66
e 5 68
e 5 71
e 5 73
e 5 75
e 5 76
e 5 84
e 5 88
e 5 90
e 5 91
e 5 96
e 5 104
e 5 108
e 5 109
e 5 113
e 5 114
e 5 116
e 5 124
e 5 126
e 5 127
e 5 128
e 5 133
e 5 143
e 5 145
e 6 13
e 6 16
e 6 18
e 6 20
e 6 24
e 6 32
e 6 34
e 6 38
e 6 42
e 6 43
e 6 44
e 6 51
e 6 52
e 6 55
e 6 59
e 6 63
e 6 71
e 6 72
e 6 74
e 6 76
e 6 77
e 6 84
e 6 89
e 6 92
e 6 96
e 6 99
e 6 102
e 6 105
e 6 106
e 6 107
e 6 111
e 6 117
e 6 120
e 6 121
e 6 126
e 6 127
e 6 130
e 6 134
e 6 137
e 6 141
e 6 142
e 6 145
e 6 147
e 6 149
e 7 13
e 7 14
e 7 15
e 7 16
e 7 18
e 7 19
e 7 20
e 7 24
e 7 25
e 7 28
e 7 30
e 7 31
e 7 35
e 7 36
e 7 42
e 7 45
e 7 48
e 7 49
e 7 51
e 7 52
e 7 55
e 7 56
e 7 57
e 7 60
e 7 62
e 7 63
e 7 67
e 7 72
e 7 81
e 7 84
e 7 87
e 7 96
e 7 105
e 7 106
e 7 108
e 7 111
e 7 118
e 7 119
e 7 131
e 7 134
e 7 137
e 7 149
e 8 10
e 8 15
e 8 17
e 8 19
e 8 22
e 8 30
e 8 36
e 8 38
e 8 44
e 8 45
e 8 49
e 8 50
e 8 54
e 8 55
e 8 64
e 8 65
e 8 68
e 8 69
e 8 72
e 8 74
e 8 77
e 8 80
e 8 81
e 8 83
e 8 86
e 8 90
e 8 97
e 8 100
e 8 106
e 8 110
e 8 111
e 8 114
e 8 118
e 8 122
e 8 123
e 8 125
e 8 132
e 8 133
e 8 135
e 8 137
e 8 143
e 8 144
e 8 145
e 8 146
e 8 147
e 9 13
e 9 16
e 9 18
e 9 22
e 9 23
e 9 27
e 9 29
e 9 44
e 9 46
e 9 48
e 9 49
e 9 52
e 9 53
e 9 55
e 9 57
e 9 62
e 9 66
e 9 68
e 9 82
e 9 84
e 9 85
e 9 88
e 9 94
e 9 95
e 9 96
e 9 97
e 9 98
e 9 102
e 9 106
e 9 109
e 9 111
e 9 118
e 9 122
e 9 127
e 9 131
e 9 132
e 9 133
e 9 137
e 9 138
e 9 146
e 9 150
e 10 19
e 10 23
e 10 24
e 10 25
e 10 29
e 10 33
e 10 39
e 10 42
e 10 46
e 10 49
e 10 52
e 10 57
e 10 59
e 10 61
e 10 63
e 10 69
e 10 70
e 10 80
e 10 84
e 10 98
e 10 100
e 10 102
e 10 111
e 10 113
e 10 114
e 10 118
e 10 122
e 10 123
e 10 125
e 10 126
e 10 131
e 10 132
e 10 133
e 10 135
e 10 150
e 11 12
e 11 17
e 11 18
e 11 23
e 11 24
e 11 36
e 11 40
e 11 41
e 11 42
e 11 45
e 11 48
e 11 57
e 11 60
e 11 65
e 11 70
e 11 73
e 11 76
e 11 77
e 11 78
e 11 84
e 11 87
e 11 93
e 11 94
e 11 97
e 11 100
e 11 104
e 11 105
e 11 106
e 11 115
e 11 116
e 11 117
e 11 124
e 11 126
e 11 130
e 11 141
e 11 142
e 12 15
e 12 21
e 12 36
e 12 42
e 12 44
e 12 54
e 12 55
e 12 57
e 12 59
e 12 60
e 12 61
e 12 64
e 12 66
e 12 69
e 12 71
e 12 77
e 12 85
e 12 87
e 12 89
e 12 98
e 12 99
e 12 105
e 12 106
e 12 107
e 12 111
e 12 114
e 12 116
e 12 120
e 12 123
e 12 130
e 12 132
e 12 134
e 12 135
e 12 136
e 12 144
e 12 147
e 13 21
e 13 30
e 13 35
e 13 37
e 13 45
e 13 48
e 13 51
e 13 53
e 13 55
e 13 60
e 13 62
e 13 64
e 13 65
e 13 70
e 13 78
e 13 79
e 13 84
e 13 86
e 13 88
e 13 89
e 13 91
e 13 93
e 13 94
e 13 97
e 13 101
e 13 104
e 13 115
e 13 116
e 13 119
e 13 124
e 13 125
e 13 131
e 13 135
e 13 136
e 13 140
e 13 148
e 13 150
e 14 16
e 14 19
e 14 25
e 14 28
e 14 29
e 14 32
e 14 35
e 14 39
e 14 42
e 14 45
e 14 48
e 14 49
e 14 52
e 14 54
e 14 58
e 14 59
e 14 65
e 14 77
e 14 78
e 14 79
e 14 80
e 14 81
e 14 85
e 14 93
e 14 96
e 14 97
e 14 100
e 14 101
e 14 103
e 14 105
e 14 108
e 14 117
e 14 121
e 14 123
e 14 124
e 14 133
e 14 134
e 14 138
e 14 140
e 14 144
e 15 24
e 15 25
e 15 26
e 15 27
e 15 36
e 15 37
e 15 38
e 15 40
e 15 42
e 15 46
e 15 48
e 15 63
e 15 68
e 15 72
e 15 73
e 15 78
e 15 80
e 15 81
e 15 85
e 15 88
e 15 89
e 15 94
e 15 96
e 15 98
e 15 100
e 15 101
e 15 108
e 15 109
e 15 113
e 15 118
e 15 119
e 15 121
e 15 122
e 15 123
e 15 124
e 15 125
e 15 128
e 15 135
e 15 140
e 15 142
e 15 143
e 15 144
e 15 148
e 16 18
e 16 24
e 16 27
e 16 29
e 16 34
e 16 39
e 16 45
e 16 47
e 16 48
e 16 51
e 16 52
e 16 53
e 16 56
e 16 61
e 16 62
e 16 71
e 16 72
e 16 86
e 16 89
e 16 90
e 16 91
e 16 94
e 16 99
e 16 103
e 16 104
e 16 107
e 16 109
e 16 122
e 16 124
e 16 129
e 16 132
e 16 133
e 16 135
e 16 136
e 16 139
e 16 140
e 16 142
e 16 145
e 16 147
e 16 148
e 17 18
e 17 20
e 17 22
e 17 23
e 17 24
e 17 27
e 17 30
e 17 32
e 17 35
e 17 43
e 17 44
e 17 47
e 17 50
e 17 53
e 17 54
e 17 56
e 17 63
e 17 66
e 17 68
e 17 69
e 17 71
e 17 73
e 17 74
e 17 76
e 17 80
e 17 88
e 17 93
e 17 94
e 17 103
e 17 105
e 17 111
e 17 113
e 17 114
e 17 118
e 17 119
e 17 129
e 17 133
e 17 139
e 17 142
e 17 144
e 18 19
e 18 20
e 18 31
e 18 34
e 18 35
e 18 36
e 18 42
e 18 48
e 18 51
e 18 53
e 18 57
e 18 62
e 18 67
e 18 68
e 18 70
e 18 71
e 18 76
e 18 79
e 18 84
e 18 86
e 18 88
e 18 89
e 18 95
e 18 100
e 18 102
e 18 104
e 18 109
e 18 113
e 18 119
e 18 124
e 18 127
e 18 128
e 18 132
e 18 135
e 18 141
e 18 150
e 19 26
e 19 28
e 19 30
e 19 32
e 19 36
e 19 40
e 19 45
e 19 48
e 19 51
e 19 56
e 19 63
e 19 65
e 19 73
e 19 75
e 19 76
e 19 82
e 19 84
e 19 85
e 19 95
e 19 97
e 19 98
e 19 102
e 19 104
e 19 105
e 19 107
e 19 112
e 19 113
e 19 116
e 19 119
e 19 122
e 19 128
e 19 130
e 19 133
e 19 134
e 19 137
e 19 140
e 19 143
e 19 147
e 19 148
e 19 149
e 20 24
e 20 25
e 20 26
e 20 27
e 20 28
e 20 29
e 20 31
e 20 32
e 20 34
e 20 36
e 20 37
e 20 38
e 20 40
e 20 42
e 20 44
e 20 48
e 20 49
e 20 51
e 20 52
e 20 54
e 20 62
e 20 65
e 20 67
e 20 74
e 20 78
e 20 82
e 20 84
e 20 85
e 20 86
e 20 92
e 20 93
e 20 96
e 20 98
e 20 109
e 20 110
e 20 111
e 20 112
e 20 116
e 20 130
e 20 132
e 20 134
e 20 139
e 20 145
e 20 148
e 21 25
e 21 26
e 21 36
e 21 38
e 21 41
e 21 43
e 21 44
e 21 45
e 21 49
e 21 53
e 21 61
e 21 63
e 21 68
e 21 71
e 21 72
e 21 73
e 21 78
e 21 91
e 21 96
e 21 97
e 21 98
e 21 100
e 21 107
e 21 108
e 21 113
e 21 123
e 21 124
e 21 125
e 21 126
e 21 128
e 21 131
e 21 139
e 21 140
e 21 145
e 21 146
e 22 23
e 22 27
e 22 29
e 22 32
e 22 37
e 22 40
e 22 46
e 22 48
e 22 50
e 22 52
e 22 53
e 22 54
e 22 57
e 22 66
e 22 71
e 22 74
e 22 77
e 22 78
e 22 87
e 22 91
e 22 93
e 22 106
e 22 108
e 22 110
e 22 111
e 22 112
e 22 116
e 22 117
e 22 118
e 22 119
e 22 121
e 22 123
e 22 127
e 22 133
e 22 137
e 22 141
e 22 144
e 22 148
e 22 150
e 23 24
e 23 27
e 23 35
e 23 41
e 23 44
e 23 48
e 23 50
e 23 51
e 23 52
e 23 53
e 23 57
e 23 61
e 23 62
e 23 66
e 23 73
e 23 77
e 23 82
e 23 85
e 23 89
e 23 91
e 23 92
e 23 94
e 23 99
e 23 104
e 23 106
e 23 109
e 23 116
e 23 122
e 23 126
e 23 128
e 23 130
e 23 131
e 23 139
e 23 142
e 23 145
e 23 146
e 23 148
e 23 149
e 24 34
e 24 35
e 24 39
e 24 42
e 24 49
e 24 50
e 24 56
e 24 57
e 24 59
e 24 69
e 24 80
e 24 83
e 24 86
e 24 89
e 24 92
e 24 94
e 24 95
e 24 97
e 24 98
e 24 99
e 24 100
e 24 103
e 24 106
e 24 109
e 24 111
e 24 117
e 24 119
e 24 120
e 24 121
e 24 127
e 24 128
e 24 130
e 24 132
e 24 148
e 25 26
e 25 27
e 25 28
e 25 29
e 25 33
e 25 34
e 25 36
e 25 38
e 25 41
e 25 42
e 25 43
e 25 51
e 25 55
e 25 56
e 25 57
e 25 58
e 25 59
e 25 60
e 25 64
e 25 66
e 25 67
e 25 69
e 25 75
e 25 76
e 25 78
e 25 81
e 25 82
e 25 85
e 25 87
e 25 94
e 25 98
e 25 103
e 25 106
e 25 112
e 25 114
e 25 116
e 25 117
e 25 118
e 25 119
e 25 121
e 25 123
e 25 127
e 25 128
e 25 132
e 25 134
e 25 140
e 25 142
e 25 143
e 25 144
e 25 148
e 25 149
e 26 28
e 26 30
e 26 35
e 26 36
e 26 37
e 26 39
e 26 44
e 26 48
e 26 52
e 26 56
e 26 58
e 26 61
e 26 65
e 26 73
e 26 77
e 26 78
e 26 83
e 26 86
e 26 103
e 26 104
e 26 105
e 26 111
e 26 112
e 26 114
e 26 115
e 26 116
e 26 118
e 26 120
e 26 123
e 26 135
e 26 136
e 26 137
e 26 139
e 26 147
e 26 149
e 27 28
e 27 29
e 27 32
e 27 35
e 27 36
e 27 38
e 27 50
e 27 52
e 27 55
e 27 56
e 27 57
e 27 60
e 27 63
e 27 64
e 27 67
e 27 69
e 27 71
e 27 75
e 27 76
e 27 82
e 27 86
e 27 87
e 27 94
e 27 99
e 27 104
e 27 109
e 27 114
e 27 115
e 27 124
e 27 127
e 27 128
e 27 129
e 27 137
e 27 141
e 27 143
e 27 144
e 27 145
e 27 150
e 28 29
e 28 35
e 28 39
e 28 46
e 28 48
e 28 52
e 28 60
e 28 66
e 28 67
e 28 68
e 28 71
e 28 76
e 28 81
e 28 82
e 28 83
e 28 94
e 28 103
e 28 104
e 28 106
e 28 107
e 28 109
e 28 110
e 28 111
e 28 115
e 28 117
e 28 118
e 28 120
e 28 125
e 28 133
e 28 134
e 28 136
e 28 137
e 28 138
e 28 143
e 28 146
e 28 149
e 29 30
e 29 35
e 29 36
e 29 44
e 29 45
e 29 57
e 29 60
e 29 62
e 29 66
e 29 67
e 29 69
e 29 71
e 29 74
e 29 76
e 29 80
e 29 86
e 29 87
e 29 91
e 29 93
e 29 95
e 29 96
e 29 99
e 29 100
e 29 101
e 29 104
e 29 106
e 29 107
e 29 109
e 29 110
e 29 111
e 29 115
e 29 127
e 29 129
e 29 131
e 29 133
e 29 139
e 29 142
e 29 143
e 29 145
e 30 31
e 30 38
e 30 40
e 30 45
e 30 47
e 30 50
e 30 53
e 30 55
e 30 56
e 30 61
e 30 63
e 30 65
e 30 69
e 30 77
e 30 80
e 30 81
e 30 82
e 30 88
e 30 90
e 30 91
e 30 94
e 30 95
e 30 98
e 30 100
e 30 101
e 30 109
e 30 113
e 30 114
e 30 116
e 30 124
e 30 134
e 30 138
e 30 139
e 30 144
e 30 148
e 31 33
e 31 36
e 31 40
e 31 42
e 31 43
e 31 45
e 31 54
e 31 57
e 31 59
e 31 60
e 31 62
e 31 65
e 31 70
e 31 74
e 31 75
e 31 76
e 31 77
e 31 84
e 31 88
e 31 89
e 31 93
e 31 95
e 31 99
e 31 102
e 31 108
e 31 111
e 31 115
e 31 117
e 31 118
e 31 119
e 31 120
e 31 122
e 31 125
e 31 127
e 31 128
e 31 129
e 31 136
e 31 138
e 31 142
e 31 143
e 31 147
e 32 33
e 32 34
e 32 36
e 32 38
e 32 41
e 32 42
e 32 45
e 32 46
e 32 50
e 32 54
e 32 67
e 32 69
e 32 73
e 32 74
e 32 75
e 32 81
e 32 83
e 32 86
e 32 90
e 32 91
e 32 98
e 32 99
e 32 100
e 32 101
e 32 105
e 32 106
e 32 108
e 32 109
e 32 113
e 32 116
e 32 117
e 32 123
e 32 127
e 32 132
e 32 134
e 32 135
e 32 139
e 32 142
e 32 144
e 32 150
e 33 34
e 33 38
e 33 42
e 33 43
e 33 47
e 33 49
e 33 52
e 33 53
e 33 56
e 33 70
e 33 72
e 33 73
e 33 74
e 33 76
e 33 77
e 33 78
e 33 80
e 33 86
e 33 87
e 33 92
e 33 96
e 33 98
e 33 99
e 33 101
e 33 105
e 33 108
e 33 116
e 33 117
e 33 119
e 33 121
e 33 124
e 33 126
e 33 127
e 33 138
e 33 139
e 33 140
e 33 142
e 33 143
e 33 144
e 33 145
e 33 146
e 33 147
e 34 37
e 34 40
e 34 43
e 34 46
e 34 49
e 34 50
e 34 51
e 34 57
e 34 61
e 34 63
e 34 70
e 34 72
e 34 79
e 34 81
e 34 82
e 34 83
e 34 85
e 34 87
e 34 89
e 34 92
e 34 93
e 34 95
e 34 99
e 34 100
e 34 107
e 34 109
e 34 112
e 34 114
e 34 116
e 34 118
e 34 119
e 34 123
e 34 127
e 34 133
e 34 141
e 34 147
e 35 37
e 35 38
e 35 39
e 35 46
e 35 48
e 35 57
e 35 63
e 35 66
e 35 68
e 35 70
e 35 72
e 35 78
e 35 80
e 35 82
e 35 86
e 35 93
e 35 96
e 35 97
e 35 98
e 35 101
e 35 106
e 35 108
e 35 113
e 35 114
e 35 123
e 35 126
e 35 133
e 35 138
e 35 140
e 35 144
e 35 149
e 35 150
e 36 37
e 36 44
e 36 47
e 36 48
e 36 53
e 36 54
e 36 62
e 36 66
e 36 68
e 36 69
e 36 70
e 36 72
e 36 86
e 36 88
e 36 89
e 36 92
e 36 96
e 36 101
e 36 103
e 36 109
e 36 125
e 36 129
e 36 131
e 36 137
e 36 140
e 36 142
e 36 144
e 36 145
e 37 42
e 37 59
e 37 60
e 37 63
e 37 65
e 37 71
e 37 73
e 37 74
e 37 75
e 37 78
e 37 82
e 37 84
e 37 85
e 37 86
e 37 92
e 37 96
e 37 101
e 37 102
e 37 109
e 37 111
e 37 120
e 37 121
e 37 133
e 37 135
e 37 144
e 37 148
e 37 150
e 38 39
e 38 47
e 38 48
e 38 49
e 38 50
e 38 53
e 38 55
e 38 57
e 38 59
e 38 69
e 38 72
e 38 74
e 38 79
e 38 82
e 38 84
e 38 85
e 38 91
e 38 97
e 38 99
e 38 101
e 38 106
e 38 110
e 38 112
e 38 114
e 38 115
e 38 119
e 38 121
e 38 125
e 38 126
e 38 127
e 38 132
e 38 135
e 38 141
e 38 145
e 39 41
e 39 46
e 39 47
e 39 48
e 39 61
e 39 62
e 39 63
e 39 64
e 39 65
e 39 73
e 39 80
e 39 81
e 39 82
e 39 84
e 39 88
e 39 91
e 39 92
e 39 93
e 39 99
e 39 101
e 39 109
e 39 112
e 39 113
e 39 116
e 39 118
e 39 128
e 39 130
e 39 135
e 39 136
e 39 140
e 39 144
e 39 146
e 40 41
e 40 46
e 40 47
e 40 51
e 40 54
e 40 55
e 40 61
e 40 64
e 40 67
e 40 71
e 40 72
e 40 73
e 40 80
e 40 81
e 40 88
e 40 89
e 40 95
e 40 98
e 40 100
e 40 106
e 40 107
e 40 110
e 40 112
e 40 114
e 40 120
e 40 130
e 40 138
e 40 139
e 40 140
e 40 147
e 40 148
e 41 46
e 41 47
e 41 61
e 41 63
e 41 66
e 41 68
e 41 71
e 41 76
e 41 78
e 41 79
e 41 81
e 41 88
e 41 94
e 41 102
e 41 103
e 41 104
e 41 111
e 41 112
e 41 114
e 41 120
e 41 124
e 41 125
e 41 126
e 41 130
e 41 134
e 41 141
e 41 145
e 41 146
e 41 148
e 42 43
e 42 44
e 42 51
e 42 54
e 42 58
e 42 63
e 42 64
e 42 71
e 42 74
e 42 75
e 42 80
e 42 88
e 42 93
e 42 97
e 42 99
e 42 101
e 42 102
e 42 103
e 42 107
e 42 109
e 42 110
e 42 113
e 42 115
e 42 119
e 42 124
e 42 131
e 42 140
e 42 143
e 42 146
e 42 147
e 42 149
e 43 54
e 43 55
e 43 60
e 43 69
e 43 70
e 43 73
e 43 79
e 43 81
e 43 86
e 43 91
e 43 92
e 43 94
e 43 96
e 43 103
e 43 107
e 43 108
e 43 111
e 43 115
e 43 117
e 43 119
e 43 122
e 43 123
e 43 126
e 43 131
e 43 136
e 43 139
e 43 140
e 43 143
e 43 145
e 44 45
e 44 47
e 44 52
e 44 54
e 44 68
e 44 69
e 44 71
e 44 72
e 44 73
e 44 74
e 44 82
e 44 85
e 44 86
e 44 87
e 44 90
e 44 92
e 44 94
e 44 95
e 44 98
e 44 99
e 44 101
e 44 105
e 44 107
e 44 109
e 44 117
e 44 120
e 44 122
e 44 123
e 44 124
e 44 128
e 44 136
e 44 142
e 44 143
e 44 144
e 44 145
e 44 150
e 45 48
e 45 50
e 45 53
e 45 54
e 45 56
e 45 67
e 45 69
e 45 72
e 45 77
e 45 81
e 45 87
e 45 88
e 45 89
e 45 90
e 45 91
e 45 92
e 45 94
e 45 96
e 45 98
e 45 102
e 45 103
e 45 109
e 45 112
e 45 114
e 45 115
e 45 116
e 45 117
e 45 119
e 45 120
e 45 121
e 45 126
e 45 131
e 45 133
e 45 135
e 45 138
e 45 149
e 45 150
e 46 47
e 46 52
e 46 53
e 46 55
e 46 56
e 46 57
e 46 58
e 46 59
e 46 63
e 46 66
e 46 68
e 46 71
e 46 77
e 46 80
e 46 90
e 46 92
e 46 111
e 46 115
e 46 124
e 46 130
e 46 135
e 46 139
e 46 140
e 46 143
e 46 147
e 47 51
e 47 61
e 47 62
e 47 63
e 47 65
e 47 67
e 47 69
e 47 71
e 47 74
e 47 75
e 47 84
e 47 85
e 47 98
e 47 102
e 47 106
e 47 107
e 47 108
e 47 109
e 47 118
e 47 124
e 47 126
e 47 128
e 47 134
e 47 137
e 47 142
e 47 144
e 47 145
e 47 148
e 47 150
e 48 50
e 48 56
e 48 57
e 48 61
e 48 64
e 48 65
e 48 66
e 48 71
e 48 76
e 48 78
e 48 83
e 48 92
e 48 94
e 48 95
e 48 97
e 48 102
e 48 110
e 48 113
e 48 117
e 48 118
e 48 119
e 48 123
e 48 134
e 48 138
e 48 141
e 48 143
e 48 148
e 49 55
e 49 56
e 49 57
e 49 60
e 49 62
e 49 66
e 49 72
e 49 81
e 49 87
e 49 88
e 49 89
e 49 91
e 49 93
e 49 95
e 49 101
e 49 104
e 49 111
e 49 112
e 49 114
e 49 116
e 49 117
e 49 120
e 49 121
e 49 123
e 49 125
e 49 129
e 49 134
e 49 135
e 49 140
e 49 142
e 49 144
e 49 146
e 50 53
e 50 58
e 50 60
e 50 68
e 50 75
e 50 80
e 50 85
e 50 86
e 50 95
e 50 96
e 50 101
e 50 102
e 50 108
e 50 112
e 50 113
e 50 114
e 50 119
e 50 121
e 50 126
e 50 131
e 50 132
e 50 133
e 50 142
e 50 144
e 50 145
e 50 150
e 51 58
e 51 59
e 51 63
e 51 65
e 51 69
e 51 72
e 51 73
e 51 75
e 51 76
e 51 78
e 51 79
e 51 80
e 51 82
e 51 84
e 51 86
e 51 87
e 51 91
e 51 92
e 51 95
e 51 96
e 51 104
e 51 106
e 51 108
e 51 111
e 51 114
e 51 134
e 51 142
e 51 145
e 51 147
e 52 53
e 52 54
e 52 59
e 52 60
e 52 62
e 52 63
e 52 65
e 52 68
e 52 69
e 52 71
e 52 73
e 52 76
e 52 84
e 52 88
e 52 91
e 52 94
e 52 100
e 52 101
e 52 107
e 52 118
e 52 119
e 52 120
e 52 124
e 52 127
e 52 128
e 52 134
e 52 136
e 52 139
e 52 140
e 52 141
e 52 142
e 52 148
e 52 149
e 53 57
e 53 59
e 53 62
e 53 64
e 53 68
e 53 69
e 53 70
e 53 71
e 53 74
e 53 76
e 53 81
e 53 84
e 53 89
e 53 96
e 53 104
e 53 109
e 53 110
e 53 116
e 53 121
e 53 123
e 53 125
e 53 140
e 53 141
e 53 143
e 54 60
e 54 61
e 54 62
e 54 68
e 54 75
e 54 77
e 54 98
e 54 101
e 54 110
e 54 113
e 54 114
e 54 115
e 54 117
e 54 118
e 54 123
e 54 125
e 54 128
e 54 132
e 54 138
e 54 139
e 54 141
e 54 142
e 54 146
e 55 59
e 55 64
e 55 66
e 55 70
e 55 73
e 55 74
e 55 75
e 55 78
e 55 79
e 55 83
e 55 90
e 55 104
e 55 105
e 55 107
e 55 108
e 55 109
e 55 112
e 55 115
e 55 123
e 55 124
e 55 131
e 55 133
e 55 138
e 55 140
e 55 144
e 55 149
e 56 58
e 56 61
e 56 70
e 56 74
e 56 75
e 56 81
e 56 83
e 56 92
e 56 95
e 56 101
e 56 102
e 56 103
e 56 105
e 56 108
e 56 110
e 56 111
e 56 128
e 56 131
e 56 132
e 56 134
e 56 136
e 56 143
e 56 144
e 56 148
e 57 58
e 57 62
e 57 63
e 57 65
e 57 66
e 57 72
e 57 73
e 57 74
e 57 76
e 57 77
e 57 80
e 57 83
e 57 85
e 57 86
e 57 89
e 57 95
e 57 97
e 57 98
e 57 100
e 57 101
e 57 104
e 57 106
e 57 109
e 57 110
e 57 117
e 57 132
e 57 136
e 57 140
e 57 141
e 57 142
e 57 145
e 57 148
e 58 59
e 58 62
e 58 69
e 58 70
e 58 71
e 58 79
e 58 82
e 58 83
e 58 92
e 58 95
e 58 96
e 58 99
e 58 102
e 58 107
e 58 109
e 58 110
e 58 114
e 58 116
e 58 118
e 58 121
e 58 122
e 58 126
e 58 128
e 58 129
e 58 133
e 58 135
e 58 136
e 58 143
e 58 146
e 59 60
e 59 63
e 59 64
e 59 67
e 59 74
e 59 85
e 59 86
e 59 89
e 59 95
e 59 96
e 59 100
e 59 101
e 59 102
e 59 103
e 59 106
e 59 107
e 59 109
e 59 122
e 59 128
e 59 131
e 59 137
e 59 139
e 59 147
e 59 148
e 59 150
e 60 74
e 60 76
e 60 79
e 60 80
e 60 86
e 60 87
e 60 90
e 60 91
e 60 95
e 60 102
e 60 103
e 60 105
e 60 106
e 60 107
e 60 108
e 60 110
e 60 112
e 60 116
e 60 120
e 60 121
e 60 135
e 60 136
e 60 143
e 60 147
e 60 148
e 61 67
e 61 68
e 61 74
e 61 76
e 61 81
e 61 83
e 61 87
e 61 88
e 61 89
e 61 101
e 61 103
e 61 104
e 61 107
e 61 108
e 61 109
e 61 110
e 61 111
e 61 117
e 61 122
e 61 127
e 61 133
e 61 136
e 61 138
e 61 140
e 61 141
e 61 142
e 61 143
e 61 144
e 61 147
e 62 65
e 62 66
e 62 71
e 62 72
e 62 76
e 62 77
e 62 79
e 62 81
e 62 83
e 62 84
e 62 88
e 62 89
e 62 95
e 62 96
e 62 97
e 62 98
e 62 100
e 62 102
e 62 127
e 62 128
e 62 131
e 62 133
e 62 135
e 62 137
e 62 141
e 62 146
e 62 147
e 62 148
e 63 64
e 63 72
e 63 74
e 63 89
e 63 91
e 63 93
e 63 94
e 63 97
e 63 98
e 63 100
e 63 101
e 63 108
e 63 110
e 63 112
e 63 114
e 63 115
e 63 116
e 63 125
e 63 130
e 63 133
e 63 136
e 63 138
e 63 141
e 63 145
e 63 146
e 63 148
e 64 67
e 64 69
e 64 71
e 64 72
e 64 74
e 64 80
e 64 82
e 64 83
e 64 84
e 64 87
e 64 89
e 64 90
e 64 91
e 64 93
e 64 98
e 64 99
e 64 100
e 64 101
e 64 102
e 64 103
e 64 104
e 64 111
e 64 114
e 64 116
e 64 121
e 64 122
e 64 123
e 64 124
e 64 125
e 64 126
e 64 127
e 64 130
e 64 136
e 64 139
e 64 145
e 65 69
e 65 74
e 65 77
e 65 78
e 65 80
e 65 81
e 65 83
e 65 89
e 65 91
e 65 100
e 65 104
e 65 105
e 65 111
e 65 113
e 65 114
e 65 115
e 65 116
e 65 118
e 65 119
e 65 124
e 65 134
e 65 136
e 65 138
e 65 148
e 66 67
e 66 71
e 66 72
e 66 74
e 66 78
e 66 83
e 66 85
e 66 86
e 66 90
e 66 92
e 66 94
e 66 104
e 66 109
e 66 115
e 66 125
e 66 127
e 66 130
e 66 132
e 66 140
e 66 142
e 66 145
e 66 147
e 66 148
e 67 77
e 67 78
e 67 86
e 67 87
e 67 88
e 67 90
e 67 94
e 67 100
e 67 101
e 67 104
e 67 105
e 67 106
e 67 107
e 67 116
e 67 121
e 67 122
e 67 123
e 67 124
e 67 126
e 67 127
e 67 131
e 67 134
e 67 136
e 67 139
e 67 141
e 67 143
e 67 147
e 67 148
e 68 73
e 68 75
e 68 77
e 68 78
e 68 80
e 68 81
e 68 86
e 68 90
e 68 98
e 68 104
e 68 109
e 68 111
e 68 112
e 68 114
e 68 115
e 68 116
e 68 117
e 68 119
e 68 125
e 68 133
e 68 135
e 68 136
e 69 70
e 69 71
e 69 77
e 69 84
e 69 90
e 69 92
e 69 99
e 69 101
e 69 105
e 69 106
e 69 109
e 69 112
e 69 116
e 69 126
e 69 127
e 69 128
e 69 134
e 69 138
e 69 139
e 69 140
e 69 147
e 69 150
e 70 75
e 70 78
e 70 79
e 70 83
e 70 85
e 70 88
e 70 89
e 70 102
e 70 105
e 70 106
e 70 111
e 70 112
e 70 114
e 70 117
e 70 118
e 70 124
e 70 128
e 70 131
e 70 133
e 70 134
e 70 135
e 70 142
e 70 146
e 70 147
e 70 149
e 71 72
e 71 77
e 71 83
e 71 84
e 71 86
e 71 87
e 71 89
e 71 90
e 71 91
e 71 101
e 71 110
e 71 113
e 71 115
e 71 116
e 71 121
e 71 122
e 71 124
e 71 127
e 71 138
e 71 140
e 71 145
e 71 147
e 71 150
e 72 73
e 72 75
e 72 78
e 72 79
e 72 85
e 72 86
e 72 87
e 72 89
e 72 91
e 72 94
e 72 95
e 72 98
e 72 99
e 72 105
e 72 107
e 72 109
e 72 113
e 72 114
e 72 120
e 72 122
e 72 123
e 72 124
e 72 126
e 72 127
e 72 130
e 72 139
e 72 140
e 72 144
e 72 146
e 72 147
e 73 75
e 73 76
e 73 78
e 73 79
e 73 80
e 73 81
e 73 83
e 73 84
e 73 87
e 73 88
e 73 89
e 73 93
e 73 94
e 73 95
e 73 98
e 73 102
e 73 105
e 73 109
e 73 114
e 73 119
e 73 125
e 73 128
e 73 130
e 73 133
e 73 135
e 73 141
e 73 149
e 73 150
e 74 75
e 74 79
e 74 85
e 74 86
e 74 88
e 74 94
e 74 98
e 74 99
e 74 101
e 74 110
e 74 112
e 74 116
e 74 120
e 74 124
e 74 125
e 74 126
e 74 128
e 74 133
e 74 134
e 74 142
e 74 144
e 74 145
e 75 85
e 75 89
e 75 90
e 75 91
e 75 95
e 75 97
e 75 98
e 75 99
e 75 101
e 75 108
e 75 111
e 75 114
e 75 116
e 75 119
e 75 135
e 75 145
e 75 146
e 75 150
e 76 80
e 76 81
e 76 83
e 76 88
e 76 89
e 76 94
e 76 95
e 76 99
e 76 101
e 76 104
e 76 110
e 76 113
e 76 115
e 76 117
e 76 120
e 76 122
e 76 124
e 76 127
e 76 128
e 76 133
e 76 135
e 76 136
e 76 138
e 76 147
e 76 150
e 77 89
e 77 96
e 77 102
e 77 108
e 77 109
e 77 110
e 77 113
e 77 119
e 77 127
e 77 129
e 77 132
e 77 136
e 77 139
e 77 140
e 77 142
e 77 143
e 77 146
e 77 147
e 77 149
e 78 79
e 78 81
e 78 82
e 78 88
e 78 91
e 78 94
e 78 96
e 78 102
e 78 108
e 78 109
e 78 117
e 78 118
e 78 119
e 78 127
e 78 130
e 78 133
e 78 136
e 78 137
e 78 142
e 78 146
e 78 149
e 78 150
e 79 81
e 79 99
e 79 100
e 79 106
e 79 110
e 79 114
e 79 115
e 79 117
e 79 121
e 79 122
e 79 131
e 79 144
e 79 150
e 80 81
e 80 82
e 80 88
e 80 90
e 80 94
e 80 101
e 80 103
e 80 109
e 80 110
e 80 113
e 80 117
e 80 121
e 80 124
e 80 132
e 80 133
e 80 137
e 80 138
e 80 139
e 80 143
e 80 148
e 80 149
e 81 84
e 81 93
e 81 99
e 81 101
e 81 104
e 81 106
e 81 116
e 81 117
e 81 118
e 81 122
e 81 133
e 81 135
e 81 136
e 81 146
e 81 150
e 82 84
e 82 87
e 82 97
e 82 98
e 82 101
e 82 104
e 82 112
e 82 117
e 82 121
e 82 123
e 82 125
e 82 128
e 82 131
e 82 132
e 82 133
e 82 139
e 82 140
e 82 142
e 82 144
e 82 146
e 83 85
e 83 88
e 83 89
e 83 90
e 83 92
e 83 106
e 83 117
e 83 118
e 83 120
e 83 124
e 83 125
e 83 127
e 83 128
e 83 135
e 83 137
e 83 138
e 83 143
e 83 148
e 83 149
e 84 88
e 84 90
e 84 92
e 84 93
e 84 98
e 84 99
e 84 100
e 84 107
e 84 108
e 84 110
e 84 111
e 84 117
e 84 119
e 84 121
e 84 126
e 84 128
e 84 129
e 84 132
e 84 134
e 84 137
e 84 142
e 84 144
e 84 146
e 85 89
e 85 91
e 85 92
e 85 99
e 85 105
e 85 107
e 85 109
e 85 119
e 85 126
e 85 127
e 85 128
e 85 134
e 85 139
e 85 140
e 85 148
e 86 89
e 86 91
e 86 93
e 86 96
e 86 97
e 86 98
e 86 101
e 86 104
e 86 107
e 86 110
e 86 111
e 86 114
e 86 116
e 86 118
e 86 119
e 86 122
e 86 124
e 86 125
e 86 126
e 86 128
e 86 134
e 86 135
e 86 139
e 86 142
e 86 143
e 86 145
e 86 149
e 87 88
e 87 91
e 87 98
e 87 100
e 87 104
e 87 105
e 87 110
e 87 111
e 87 112
e 87 116
e 87 119
e 87 124
e 87 125
e 87 127
e 87 128
e 87 131
e 87 134
e 87 137
e 87 138
e 87 139
e 87 141
e 87 142
e 87 145
e 87 150
e 88 89
e 88 96
e 88 102
e 88 103
e 88 105
e 88 107
e 88 110
e 88 113
e 88 115
e 88 120
e 88 121
e 88 122
e 88 125
e 88 127
e 88 128
e 88 132
e 88 137
e 88 140
e 88 143
e 88 145
e 88 147
e 88 148
e 89 91
e 89 95
e 89 101
e 89 105
e 89 107
e 89 108
e 89 110
e 89 111
e 89 113
e 89 115
e 89 117
e 89 121
e 89 125
e 89 126
e 89 128
e 89 129
e 89 133
e 89 134
e 89 136
e 89 137
e 89 144
e 89 149
e 89 150
e 90 93
e 90 94
e 90 97
e 90 104
e 90 112
e 90 115
e 90 118
e 90 123
e 90 126
e 90 127
e 90 128
e 90 129
e 90 132
e 90 133
e 90 137
e 90 138
e 90 144
e 90 150
e 91 95
e 91 98
e 91 100
e 91 107
e 91 110
e 91 118
e 91 122
e 91 125
e 91 130
e 91 140
e 91 144
e 91 145
e 91 148
e 91 149
e 92 95
e 92 98
e 92 102
e 92 103
e 92 105
e 92 106
e 92 108
e 92 110
e 92 115
e 92 117
e 92 119
e 92 127
e 92 129
e 92 130
e 92 132
e 92 133
e 92 136
e 92 139
e 92 143
e 92 145
e 92 148
e 92 150
e 93 96
e 93 113
e 93 114
e 93 116
e 93 122
e 93 123
e 93 126
e 93 133
e 93 135
e 93 136
e 93 137
e 93 138
e 93 139
e 93 141
e 93 142
e 93 146
e 93 150
e 94 96
e 94 102
e 94 106
e 94 107
e 94 115
e 94 116
e 94 123
e 94 125
e 94 126
e 94 127
e 94 130
e 94 131
e 94 132
e 94 134
e 94 135
e 94 139
e 94 140
e 94 143
e 94 145
e 94 149
e 94 150
e 95 96
e 95 97
e 95 105
e 95 107
e 95 109
e 95 113
e 95 117
e 95 120
e 95 122
e 95 124
e 95 127
e 95 131
e 95 135
e 95 141
e 96 98
e 96 105
e 96 106
e 96 108
e 96 113
e 96 120
e 96 121
e 96 122
e 96 124
e 96 125
e 96 132
e 96 135
e 96 136
e 96 142
e 96 144
e 96 150
e 97 98
e 97 100
e 97 101
e 97 107
e 97 110
e 97 111
e 97 119
e 97 121
e 97 124
e 97 125
e 97 127
e 97 130
e 97 133
e 97 135
e 97 142
e 97 146
e 97 147
e 98 105
e 98 109
e 98 113
e 98 114
e 98 120
e 98 123
e 98 125
e 98 126
e 98 127
e 98 128
e 98 131
e 98 134
e 98 143
e 98 146
e 98 147
e 98 149
e 99 101
e 99 102
e 99 103
e 99 106
e 99 108
e 99 111
e 99 112
e 99 113
e 99 114
e 99 115
e 99 117
e 99 118
e 99 121
e 99 124
e 99 125
e 99 128
e 99 130
e 99 136
e 99 145
e 99 147
e 99 148
e 100 106
e 100 108
e 100 110
e 100 111
e 100 114
e 100 121
e 100 127
e 100 128
e 100 135
e 100 142
e 100 145
e 100 147
e 100 149
e 101 104
e 101 108
e 101 109
e 101 111
e 101 115
e 101 117
e 101 119
e 101 120
e 101 121
e 101 127
e 101 129
e 101 133
e 101 135
e 101 136
e 101 145
e 101 146
e 101 147
e 101 148
e 101 150
e 102 104
e 102 106
e 102 111
e 102 115
e 102 126
e 102 130
e 102 131
e 102 132
e 102 138
e 102 141
e 102 143
e 102 148
e 102 150
e 103 107
e 103 108
e 103 111
e 103 117
e 103 118
e 103 122
e 103 123
e 103 124
e 103 130
e 103 137
e 103 142
e 103 145
e 103 146
e 103 150
e 104 105
e 104 111
e 104 113
e 104 115
e 104 117
e 104 119
e 104 121
e 104 122
e 104 129
e 104 134
e 104 136
e 104 137
e 104 139
e 104 144
e 104 146
e 104 149
e 104 150
e 105 116
e 105 124
e 105 127
e 105 128
e 105 129
e 105 130
e 105 135
e 105 137
e 105 148
e 105 149
e 105 150
e 106 107
e 106 112
e 106 116
e 106 118
e 106 121
e 106 123
e 106 135
e 106 137
e 106 143
e 106 148
e 106 150
e 107 110
e 107 114
e 107 115
e 107 120
e 107 123
e 107 124
e 107 125
e 107 127
e 107 134
e 107 135
e 107 139
e 108 111
e 108 114
e 108 117
e 108 118
e 108 135
e 108 136
e 108 139
e 108 144
e 108 146
e 109 113
e 109 116
e 109 124
e 109 126
e 109 128
e 109 131
e 109 133
e 109 142
e 109 143
e 109 149
e 109 150
e 110 115
e 110 116
e 110 121
e 110 125
e 110 129
e 110 132
e 110 135
e 110 137
e 110 139
e 110 140
e 110 143
e 110 149
e 111 114
e 111 116
e 111 118
e 111 120
e 111 121
e 111 124
e 111 126
e 111 130
e 111 134
e 111 135
e 111 139
e 111 140
e 111 144
e 112 120
e 112 122
e 112 124
e 112 125
e 112 129
e 112 133
e 112 138
e 112 142
e 112 144
e 112 148
e 112 150
e 113 118
e 113 120
e 113 122
e 113 127
e 113 132
e 113 133
e 113 137
e 113 138
e 113 140
e 113 141
e 113 144
e 113 146
e 113 147
e 113 150
e 114 119
e 114 123
e 114 130
e 114 136
e 114 144
e 115 124
e 115 128
e 115 129
e 115 133
e 115 134
e 115 135
e 115 142
e 115 143
e 115 144
e 115 147
e 115 150
e 116 117
e 116 120
e 116 124
e 116 125
e 116 128
e 116 137
e 116 138
e 116 141
e 116 144
e 117 120
e 117 122
e 117 123
e 117 124
e 117 127
e 117 136
e 117 138
e 117 143
e 117 144
e 117 146
e 117 147
e 117 148
e 118 119
e 118 125
e 118 129
e 118 132
e 118 134
e 118 138
e 118 143
e 118 147
e 118 149
e 118 150
e 119 120
e 119 126
e 119 127
e 119 130
e 119 138
e 119 139
e 119 141
e 119 146
e 119 147
e 119 150
e 120 129
e 120 130
e 120 135
e 120 136
e 120 146
e 120 148
e 120 149
e 121 122
e 121 128
e 121 130
e 121 131
e 121 138
e 121 146
e 122 125
e 122 127
e 122 129
e 122 131
e 122 134
e 122 136
e 122 137
e 122 143
e 122 144
e 122 149
e 123 124
e 123 127
e 123 128
e 123 130
e 123 140
e 124 127
e 124 130
e 124 131
e 124 134
e 124 137
e 124 140
e 124 141
e 124 145
e 125 129
e 125 137
e 125 145
e 125 148
e 126 131
e 126 132
e 126 137
e 126 139
e 126 143
e 126 147
e 127 132
e 127 134
e 127 136
e 127 137
e 127 138
e 127 144
e 127 148
e 128 130
e 128 131
e 128 146
e 129 134
e 129 142
e 129 143
e 129 145
e 129 148
e 130 131
e 130 132
e 130 133
e 130 139
e 130 142
e 130 143
e 130 145
e 131 133
e 131 135
e 131 139
e 131 142
e 131 146
e 132 133
e 132 136
e 132 139
e 132 146
e 132 148
e 132 149
e 133 135
e 133 137
e 133 138
e 133 143
e 133 147
e 134 135
e 134 137
e 134 138
e 134 142
e 134 143
e 134 144
e 134 147
e 134 149
e 135 137
e 135 138
e 135 139
e 135 141
e 135 143
e 135 145
e 135 146
e 136 140
e 136 141
e 136 143
e 136 146
e 136 149
e 137 141
e 137 142
e 138 144
e 138 145
e 138 146
e 138 147
e 139 142
e 139 144
e 139 145
e 139 147
e 139 149
e 140 143
e 140 149
e 140 150
e 142 145
e 142 146
e 142 150
e 143 145
e 143 149
e 144 150
e 145 147
e 146 148
e 147 148
e 147 150
